
--- Job M1_4_E6c.gms Start 06/01/26 17:49:31 51.4.0 91cb996b WEX-WEI x86 64bit/MS Windows
--- Applying:
    C:\GAMS\51\gmsprmNT.txt
--- GAMS Parameters defined
    Input C:\Users\pm.deoliveiradejes\Dropbox\AG_EC_GreenH2\AGyCE\M4_AGPE_Models_optimal\Ejemplo_6_MILP\gams\M1_4_E6c.gms
    PageSize 0
    ScrDir C:\Users\pm.deoliveiradejes\Dropbox\AG_EC_GreenH2\AGyCE\M4_AGPE_Models_optimal\Ejemplo_6_MILP\gams\225a\
    SysDir C:\GAMS\51\
    LogOption 3
    AppendLog 1
    ErrMsg 1
    ErrorLog 99
    IDE 1
    LstTitleLeftAligned 1
Licensee: Academic User                                  G260505+0003Ac-GEN
          pm.deoliveiradejes@uniandes.edu.co                      CLA118952
          225a\gamslice.dat
          node:21852603 mem:8 cores:4 ipport:60331 v:2                     
          Community license for demonstration and instructional purposes only
System information: 4 physical cores and 8 Gb physical memory detected
GAMS 51.4.0   Copyright (C) 1987-2025 GAMS Development. All rights reserved
--- Starting compilation
--- M1_4_E6c.gms(121) 3 Mb
--- Starting execution: elapsed 0:00:00.028
--- M1_4_E6c.gms(118) 4 Mb
--- Generating MIP model modelAGPEcolombia
--- M1_4_E6c.gms(121) 4 Mb
---   186 rows  185 columns  580 non-zeroes
---   48 discrete-columns
--- Range statistics (absolute non-zero finite values)
--- RHS       [min, max] : [ 7.296E+00, 9.596E+05] - Zero values observed as well
--- Bound     [min, max] : [ 1.000E+00, 1.900E+03] - Zero values observed as well
--- Matrix    [min, max] : [ 9.937E-02, 6.000E+02]
--- Executing GUROBI (Solvelink=2): elapsed 0:00:00.043

    Gurobi           51.4.0 91cb996b Nov 10, 2025          WEI x86 64bit/MS Window

... GAMS/Gurobi demo/community requires a Gurobi license from Gurobi Optimization.
... This solver runs with a community license. No commercial use.

    Gurobi Optimizer version 12.0.3 build v12.0.3rc0 (win64 - Windows 11.0 (26100.2))
    
    CPU model: Intel(R) Core(TM) i7-2600 CPU @ 3.40GHz, instruction set [SSE2|AVX]
    Thread count: 4 physical cores, 8 logical processors, using up to 8 threads
    
    Non-default parameters:
    MIPGapAbs  0
    LogToConsole  0
    
    Optimize a model with 186 rows, 185 columns and 580 nonzeros
    Model fingerprint: 0x7d3d4331
    Variable types: 137 continuous, 48 integer (0 binary)
    Coefficient statistics:
      Matrix range     [1e-01, 6e+02]
      Objective range  [1e+00, 1e+00]
      Bounds range     [1e+00, 2e+03]
      RHS range        [7e+00, 1e+06]
    Presolve removed 51 rows and 28 columns
    Presolve time: 0.01s
    Presolved: 135 rows, 157 columns, 404 nonzeros
    Variable types: 112 continuous, 45 integer (45 binary)
    Found heuristic solution: objective -57501.99853
    Found heuristic solution: objective -41513.30914
    
    Root relaxation: objective -3.120502e+04, 56 iterations, 0.00 seconds (0.00 work units)
    
        Nodes    |    Current Node    |     Objective Bounds      |     Work
     Expl Unexpl |  Obj  Depth IntInf | Incumbent    BestBd   Gap | It/Node Time
    
    *    0     0               0    -31205.01544 -31205.015  0.00%     -    0s
    
    Explored 1 nodes (56 simplex iterations) in 0.02 seconds (0.00 work units)
    Thread count was 8 (of 8 available processors)
    
    Solution count 3: -31205 -41513.3 -57502 
    No other solutions better than -31205
    
    Optimal solution found (tolerance 1.00e-04)
    Best objective -3.120501544421e+04, best bound -3.120501544421e+04, gap 0.0000%
    
    User-callback calls 478, time in user-callback 0.00 sec

... Solving fixed model...
... This solver runs with a community license. No commercial use.

    Gurobi Optimizer version 12.0.3 build v12.0.3rc0 (win64 - Windows 11.0 (26100.2))
    
    CPU model: Intel(R) Core(TM) i7-2600 CPU @ 3.40GHz, instruction set [SSE2|AVX]
    Thread count: 4 physical cores, 8 logical processors, using up to 8 threads
    
    Non-default parameters:
    MIPGapAbs  0
    LogToConsole  0
    
    Optimize a model with 186 rows, 185 columns and 580 nonzeros
    Model fingerprint: 0xa4269f16
    Coefficient statistics:
      Matrix range     [1e-01, 6e+02]
      Objective range  [1e+00, 1e+00]
      Bounds range     [1e+00, 2e+03]
      RHS range        [7e+00, 1e+06]
    Presolve removed 183 rows and 180 columns
    Presolve time: 0.00s
    Presolved: 3 rows, 5 columns, 10 nonzeros
    
    Iteration    Objective       Primal Inf.    Dual Inf.      Time
           0   -2.5040558e+04   2.290503e+01   0.000000e+00      0s
           2   -3.1205015e+04   0.000000e+00   0.000000e+00      0s
    
    Solved in 2 iterations and 0.00 seconds (0.00 work units)
    Optimal objective -3.120501544e+04
    
    User-callback calls 82, time in user-callback 0.00 sec

--- Reading solution for model modelAGPEcolombia
--- Executing after solve: elapsed 0:00:00.217
--- GDX File (execute_unload) C:\Users\pm.deoliveiradejes\Dropbox\AG_EC_GreenH2\AGyCE\M4_AGPE_Models_optimal\Ejemplo_6_MILP\gams\Results M1_4_E6c.gdx
*** Status: Normal completion
--- Job M1_4_E6c.gms Stop 06/01/26 17:49:31 elapsed 0:00:00.217
Cannot delete directory: 225a
